(set-logic QF_SLIA)
(set-option :produce-models true)
(declare-const X String)
; ^((((0?[13578])|(1[02]))[\/|\-]?((0?[1-9]|[0-2][0-9])|(3[01])))|(((0?[469])|(11))[\/|\-]?((0?[1-9]|[0-2][0-9])|(30)))|(0?[2][\/\-]?(0?[1-9]|[0-2][0-9])))[\/\-]?\d{2,4}$
(assert (str.in_re X (re.++ (re.union (re.++ (re.union (re.++ (re.opt (str.to_re "0")) (re.union (str.to_re "1") (str.to_re "3") (str.to_re "5") (str.to_re "7") (str.to_re "8"))) (re.++ (str.to_re "1") (re.union (str.to_re "0") (str.to_re "2")))) (re.opt (re.union (str.to_re "/") (str.to_re "|") (str.to_re "-"))) (re.union (re.++ (str.to_re "3") (re.union (str.to_re "0") (str.to_re "1"))) (re.++ (re.opt (str.to_re "0")) (re.range "1" "9")) (re.++ (re.range "0" "2") (re.range "0" "9")))) (re.++ (re.union (re.++ (re.opt (str.to_re "0")) (re.union (str.to_re "4") (str.to_re "6") (str.to_re "9"))) (str.to_re "11")) (re.opt (re.union (str.to_re "/") (str.to_re "|") (str.to_re "-"))) (re.union (str.to_re "30") (re.++ (re.opt (str.to_re "0")) (re.range "1" "9")) (re.++ (re.range "0" "2") (re.range "0" "9")))) (re.++ (re.opt (str.to_re "0")) (str.to_re "2") (re.opt (re.union (str.to_re "/") (str.to_re "-"))) (re.union (re.++ (re.opt (str.to_re "0")) (re.range "1" "9")) (re.++ (re.range "0" "2") (re.range "0" "9"))))) (re.opt (re.union (str.to_re "/") (str.to_re "-"))) ((_ re.loop 2 4) (re.range "0" "9")) (str.to_re "\u{0a}"))))
; /^sleep\u{7c}\d+\u{7c}\d+\x7C[a-z0-9]+\x2E[a-z]{2,3}\x7C[a-z0-9]+\x7C/
(assert (str.in_re X (re.++ (str.to_re "/sleep|") (re.+ (re.range "0" "9")) (str.to_re "|") (re.+ (re.range "0" "9")) (str.to_re "|") (re.+ (re.union (re.range "a" "z") (re.range "0" "9"))) (str.to_re ".") ((_ re.loop 2 3) (re.range "a" "z")) (str.to_re "|") (re.+ (re.union (re.range "a" "z") (re.range "0" "9"))) (str.to_re "|/\u{0a}"))))
; /^[\u{28}\u{5b}][^\x3D]+?[\u{29}\u{5d}][^\x3D]*?\x3D/Cm
(assert (str.in_re X (re.++ (str.to_re "/") (re.union (str.to_re "(") (str.to_re "[")) (re.+ (re.comp (str.to_re "="))) (re.union (str.to_re ")") (str.to_re "]")) (re.* (re.comp (str.to_re "="))) (str.to_re "=/Cm\u{0a}"))))
; ^[^\u{00}-\u{1f}\u{21}-\u{26}\u{28}-\u{2d}\u{2f}-\u{40}\u{5b}-\u{60}\u{7b}-\u{ff}]+$
(assert (str.in_re X (re.++ (re.+ (re.union (re.range "\u{00}" "\u{1f}") (re.range "!" "&") (re.range "(" "-") (re.range "/" "@") (re.range "[" "`") (re.range "{" "\u{ff}"))) (str.to_re "\u{0a}"))))
; Travel\s+version\s+lnzzlnbk\u{2f}pkrm\.finFILESIZE\x3EM1User-Agent\x3AAgentwww\x2Eweepee\x2EcomOnlineM1Host\x3A
(assert (str.in_re X (re.++ (str.to_re "Travel") (re.+ (re.union (str.to_re " ") (str.to_re "\u{09}") (str.to_re "\u{0a}") (str.to_re "\u{0c}") (str.to_re "\u{0d}"))) (str.to_re "version") (re.+ (re.union (str.to_re " ") (str.to_re "\u{09}") (str.to_re "\u{0a}") (str.to_re "\u{0c}") (str.to_re "\u{0d}"))) (str.to_re "lnzzlnbk/pkrm.finFILESIZE>\u{13}M1User-Agent:Agentwww.weepee.com\u{1b}OnlineM1Host:\u{0a}"))))
(check-sat)
